VER
4

OBJSENSE
MIN

VAR
1297 1
F 1297

CON
42974 3
HVECQRE 41473
HVECPSD 1296
L= 205

OBJACOORD
1
0 1.0

ACOORD
2305
0 0 1.0
1 1 0.5
5 2 0.5
6 3 0.5
9 4 0.5
196 49 0.5
252 62 0.5
253 63 0.5
256 64 0.5
577 145 0.5
578 146 0.5
581 147 0.5
582 148 0.5
625 169 0.5
677 170 0.5
678 171 0.5
681 172 0.5
682 173 0.5
725 194 0.5
726 195 0.5
729 196 0.5
1396 337 0.5
1397 338 0.5
1400 339 0.5
1401 340 0.5
1444 361 0.5
1548 374 0.5
1549 375 0.5
1552 376 0.5
1553 377 0.5
1596 398 0.5
1597 399 0.5
1600 400 0.5
2305 577 0.5
2306 578 0.5
2309 579 0.5
2310 580 0.5
2353 601 0.5
2354 602 0.5
2357 603 0.5
2358 604 0.5
2401 625 0.5
2501 626 0.5
2502 627 0.5
2505 628 0.5
2506 629 0.5
2549 650 0.5
2550 651 0.5
2553 652 0.5
2554 653 0.5
2597 674 0.5
2598 675 0.5
2601 676 0.5
3748 913 0.5
3749 914 0.5
3752 915 0.5
3753 916 0.5
3796 937 0.5
3797 938 0.5
3800 939 0.5
3801 940 0.5
3844 961 0.5
3996 974 0.5
3997 975 0.5
4000 976 0.5
4001 977 0.5
4044 998 0.5
4045 999 0.5
4048 1000 0.5
4049 1001 0.5
4092 1022 0.5
4093 1023 0.5
4096 1024 0.5
6085 10 0.5
6086 11 0.5
6089 12 0.5
6090 13 0.5
6133 151 0.5
6134 152 -0.5
6137 176 0.5
6138 177 -0.5
6181 583 0.5
6182 584 -0.5
6185 632 0.5
6186 633 -0.5
6241 16 0.5
6401 17 0.5
6402 18 0.5
6405 19 0.5
6406 20 0.5
6449 153 0.5
6450 154 -0.5
6453 178 0.5
6454 179 -0.5
6497 585 0.5
6498 586 -0.5
6501 634 0.5
6502 635 -0.5
6557 23 0.5
6558 24 0.5
6561 25 0.5
8308 94 0.5
8309 95 0.5
8312 96 0.5
8313 97 0.5
8356 343 0.5
8357 344 -0.5
8360 380 0.5
8361 381 -0.5
8404 919 0.5
8405 920 -0.5
8408 980 0.5
8409 981 -0.5
8464 100 0.5
8676 113 0.5
8677 114 0.5
8680 115 0.5
8681 116 0.5
8724 345 0.5
8725 346 -0.5
8728 382 0.5
8729 383 -0.5
8772 921 0.5
8773 922 -0.5
8776 982 0.5
8777 983 -0.5
8832 119 0.5
8833 120 0.5
8836 121 0.5
10405 226 0.5
10406 227 0.5
10409 228 0.5
10410 229 0.5
10453 250 0.5
10454 251 0.5
10457 252 0.5
10458 253 0.5
10501 607 0.5
10502 608 -0.5
10505 656 0.5
10506 657 -0.5
10561 232 0.5
10562 233 0.5
10565 234 0.5
10566 235 0.5
10609 256 0.5
10817 257 0.5
10818 258 0.5
10821 259 0.5
10822 260 0.5
10865 281 0.5
10866 282 0.5
10869 283 0.5
10870 284 0.5
10913 609 0.5
10914 610 -0.5
10917 658 0.5
10918 659 -0.5
10973 263 0.5
10974 264 0.5
10977 265 0.5
10978 266 0.5
11021 287 0.5
11022 288 0.5
11025 289 0.5
13252 454 0.5
13253 455 0.5
13256 456 0.5
13257 457 0.5
13300 478 0.5
13301 479 0.5
13304 480 0.5
13305 481 0.5
13348 943 0.5
13349 944 -0.5
13352 1004 0.5
13353 1005 -0.5
13408 460 0.5
13409 461 0.5
13412 462 0.5
13413 463 0.5
13456 484 0.5
13716 497 0.5
13717 498 0.5
13720 499 0.5
13721 500 0.5
13764 521 0.5
13765 522 0.5
13768 523 0.5
13769 524 0.5
13812 945 0.5
13813 946 -0.5
13816 1006 0.5
13817 1007 -0.5
13872 503 0.5
13873 504 0.5
13876 505 0.5
13877 506 0.5
13920 527 0.5
13921 528 0.5
13924 529 0.5
15877 730 0.5
15878 731 0.5
15881 732 0.5
15882 733 0.5
15925 754 0.5
15926 755 0.5
15929 756 0.5
15930 757 0.5
15973 778 0.5
15974 779 0.5
15977 780 0.5
15978 781 0.5
16033 736 0.5
16034 737 0.5
16037 738 0.5
16038 739 0.5
16081 760 0.5
16082 761 0.5
16085 762 0.5
16086 763 0.5
16129 784 0.5
16385 785 0.5
16386 786 0.5
16389 787 0.5
16390 788 0.5
16433 809 0.5
16434 810 0.5
16437 811 0.5
16438 812 0.5
16481 833 0.5
16482 834 0.5
16485 835 0.5
16486 836 0.5
16541 791 0.5
16542 792 0.5
16545 793 0.5
16546 794 0.5
16589 815 0.5
16590 816 0.5
16593 817 0.5
16594 818 0.5
16637 839 0.5
16638 840 0.5
16641 841 0.5
19348 1102 0.5
19349 1103 0.5
19352 1104 0.5
19353 1105 0.5
19396 1126 0.5
19397 1127 0.5
19400 1128 0.5
19401 1129 0.5
19444 1150 0.5
19445 1151 0.5
19448 1152 0.5
19449 1153 0.5
19504 1108 0.5
19505 1109 0.5
19508 1110 0.5
19509 1111 0.5
19552 1132 0.5
19553 1133 0.5
19556 1134 0.5
19557 1135 0.5
19600 1156 0.5
19908 1169 0.5
19909 1170 0.5
19912 1171 0.5
19913 1172 0.5
19956 1193 0.5
19957 1194 0.5
19960 1195 0.5
19961 1196 0.5
20004 1217 0.5
20005 1218 0.5
20008 1219 0.5
20009 1220 0.5
20064 1175 0.5
20065 1176 0.5
20068 1177 0.5
20069 1178 0.5
20112 1199 0.5
20113 1200 0.5
20116 1201 0.5
20117 1202 0.5
20160 1223 0.5
20161 1224 0.5
20164 1225 0.5
20737 1 0.5
20741 2 0.5
20742 3 0.5
20745 4 0.5
20932 49 0.5
20988 62 0.5
20989 63 0.5
20992 64 0.5
21313 145 0.5
21314 146 0.5
21317 147 0.5
21318 148 0.5
21361 169 0.5
21413 170 0.5
21414 171 0.5
21417 172 0.5
21418 173 0.5
21461 194 0.5
21462 195 0.5
21465 196 0.5
22132 337 0.5
22133 338 0.5
22136 339 0.5
22137 340 0.5
22180 361 0.5
22284 374 0.5
22285 375 0.5
22288 376 0.5
22289 377 0.5
22332 398 0.5
22333 399 0.5
22336 400 0.5
23041 577 0.5
23042 578 0.5
23045 579 0.5
23046 580 0.5
23089 601 0.5
23090 602 0.5
23093 603 0.5
23094 604 0.5
23137 625 0.5
23237 626 0.5
23238 627 0.5
23241 628 0.5
23242 629 0.5
23285 650 0.5
23286 651 0.5
23289 652 0.5
23290 653 0.5
23333 674 0.5
23334 675 0.5
23337 676 0.5
24484 913 0.5
24485 914 0.5
24488 915 0.5
24489 916 0.5
24532 937 0.5
24533 938 0.5
24536 939 0.5
24537 940 0.5
24580 961 0.5
24732 974 0.5
24733 975 0.5
24736 976 0.5
24737 977 0.5
24780 998 0.5
24781 999 0.5
24784 1000 0.5
24785 1001 0.5
24828 1022 0.5
24829 1023 0.5
24832 1024 0.5
26977 16 0.5
27293 23 0.5
27294 24 0.5
27297 25 0.5
29200 100 0.5
29568 119 0.5
29569 120 0.5
29572 121 0.5
31297 232 0.5
31298 233 0.5
31301 234 0.5
31302 235 0.5
31345 256 0.5
31709 263 0.5
31710 264 0.5
31713 265 0.5
31714 266 0.5
31757 287 0.5
31758 288 0.5
31761 289 0.5
34144 460 0.5
34145 461 0.5
34148 462 0.5
34149 463 0.5
34192 484 0.5
34608 503 0.5
34609 504 0.5
34612 505 0.5
34613 506 0.5
34656 527 0.5
34657 528 0.5
34660 529 0.5
36769 736 0.5
36770 737 0.5
36773 738 0.5
36774 739 0.5
36817 760 0.5
36818 761 0.5
36821 762 0.5
36822 763 0.5
36865 784 0.5
37277 791 0.5
37278 792 0.5
37281 793 0.5
37282 794 0.5
37325 815 0.5
37326 816 0.5
37329 817 0.5
37330 818 0.5
37373 839 0.5
37374 840 0.5
37377 841 0.5
40240 1108 0.5
40241 1109 0.5
40244 1110 0.5
40245 1111 0.5
40288 1132 0.5
40289 1133 0.5
40292 1134 0.5
40293 1135 0.5
40336 1156 0.5
40800 1175 0.5
40801 1176 0.5
40804 1177 0.5
40805 1178 0.5
40848 1199 0.5
40849 1200 0.5
40852 1201 0.5
40853 1202 0.5
40896 1223 0.5
40897 1224 0.5
40900 1225 0.5
41473 1 1.0
41474 2 1.0
41475 3 1.0
41476 4 1.0
41477 5 1.0
41478 6 1.0
41479 7 1.0
41480 8 1.0
41481 9 1.0
41482 10 1.0
41483 11 1.0
41484 12 1.0
41485 13 1.0
41486 14 1.0
41487 15 1.0
41488 16 1.0
41489 17 1.0
41490 18 1.0
41491 19 1.0
41492 20 1.0
41493 21 1.0
41494 22 1.0
41495 23 1.0
41496 24 1.0
41497 25 1.0
41498 26 1.0
41499 27 1.0
41500 28 1.0
41501 29 1.0
41502 30 1.0
41503 31 1.0
41504 32 1.0
41505 33 1.0
41506 34 1.0
41507 35 1.0
41508 36 1.0
41509 37 1.0
41510 38 1.0
41511 39 1.0
41512 40 1.0
41513 41 1.0
41514 42 1.0
41515 43 1.0
41516 44 1.0
41517 45 1.0
41518 46 1.0
41519 47 1.0
41520 48 1.0
41521 49 1.0
41522 50 1.0
41523 51 1.0
41524 52 1.0
41525 53 1.0
41526 54 1.0
41527 55 1.0
41528 56 1.0
41529 57 1.0
41530 58 1.0
41531 59 1.0
41532 60 1.0
41533 61 1.0
41534 62 1.0
41535 63 1.0
41536 64 1.0
41537 65 1.0
41538 66 1.0
41539 67 1.0
41540 68 1.0
41541 69 1.0
41542 70 1.0
41543 71 1.0
41544 72 1.0
41545 73 1.0
41546 74 1.0
41547 75 1.0
41548 76 1.0
41549 77 1.0
41550 78 1.0
41551 79 1.0
41552 80 1.0
41553 81 1.0
41554 82 1.0
41555 83 1.0
41556 84 1.0
41557 85 1.0
41558 86 1.0
41559 87 1.0
41560 88 1.0
41561 89 1.0
41562 90 1.0
41563 91 1.0
41564 92 1.0
41565 93 1.0
41566 94 1.0
41567 95 1.0
41568 96 1.0
41569 97 1.0
41570 98 1.0
41571 99 1.0
41572 100 1.0
41573 101 1.0
41574 102 1.0
41575 103 1.0
41576 104 1.0
41577 105 1.0
41578 106 1.0
41579 107 1.0
41580 108 1.0
41581 109 1.0
41582 110 1.0
41583 111 1.0
41584 112 1.0
41585 113 1.0
41586 114 1.0
41587 115 1.0
41588 116 1.0
41589 117 1.0
41590 118 1.0
41591 119 1.0
41592 120 1.0
41593 121 1.0
41594 122 1.0
41595 123 1.0
41596 124 1.0
41597 125 1.0
41598 126 1.0
41599 127 1.0
41600 128 1.0
41601 129 1.0
41602 130 1.0
41603 131 1.0
41604 132 1.0
41605 133 1.0
41606 134 1.0
41607 135 1.0
41608 136 1.0
41609 137 1.0
41610 138 1.0
41611 139 1.0
41612 140 1.0
41613 141 1.0
41614 142 1.0
41615 143 1.0
41616 144 1.0
41617 145 1.0
41618 146 1.0
41619 147 1.0
41620 148 1.0
41621 149 1.0
41622 150 1.0
41623 151 1.0
41624 152 1.0
41625 153 1.0
41626 154 1.0
41627 155 1.0
41628 156 1.0
41629 157 1.0
41630 158 1.0
41631 159 1.0
41632 160 1.0
41633 161 1.0
41634 162 1.0
41635 163 1.0
41636 164 1.0
41637 165 1.0
41638 166 1.0
41639 167 1.0
41640 168 1.0
41641 169 1.0
41642 170 1.0
41643 171 1.0
41644 172 1.0
41645 173 1.0
41646 174 1.0
41647 175 1.0
41648 176 1.0
41649 177 1.0
41650 178 1.0
41651 179 1.0
41652 180 1.0
41653 181 1.0
41654 182 1.0
41655 183 1.0
41656 184 1.0
41657 185 1.0
41658 186 1.0
41659 187 1.0
41660 188 1.0
41661 189 1.0
41662 190 1.0
41663 191 1.0
41664 192 1.0
41665 193 1.0
41666 194 1.0
41667 195 1.0
41668 196 1.0
41669 197 1.0
41670 198 1.0
41671 199 1.0
41672 200 1.0
41673 201 1.0
41674 202 1.0
41675 203 1.0
41676 204 1.0
41677 205 1.0
41678 206 1.0
41679 207 1.0
41680 208 1.0
41681 209 1.0
41682 210 1.0
41683 211 1.0
41684 212 1.0
41685 213 1.0
41686 214 1.0
41687 215 1.0
41688 216 1.0
41689 217 1.0
41690 218 1.0
41691 219 1.0
41692 220 1.0
41693 221 1.0
41694 222 1.0
41695 223 1.0
41696 224 1.0
41697 225 1.0
41698 226 1.0
41699 227 1.0
41700 228 1.0
41701 229 1.0
41702 230 1.0
41703 231 1.0
41704 232 1.0
41705 233 1.0
41706 234 1.0
41707 235 1.0
41708 236 1.0
41709 237 1.0
41710 238 1.0
41711 239 1.0
41712 240 1.0
41713 241 1.0
41714 242 1.0
41715 243 1.0
41716 244 1.0
41717 245 1.0
41718 246 1.0
41719 247 1.0
41720 248 1.0
41721 249 1.0
41722 250 1.0
41723 251 1.0
41724 252 1.0
41725 253 1.0
41726 254 1.0
41727 255 1.0
41728 256 1.0
41729 257 1.0
41730 258 1.0
41731 259 1.0
41732 260 1.0
41733 261 1.0
41734 262 1.0
41735 263 1.0
41736 264 1.0
41737 265 1.0
41738 266 1.0
41739 267 1.0
41740 268 1.0
41741 269 1.0
41742 270 1.0
41743 271 1.0
41744 272 1.0
41745 273 1.0
41746 274 1.0
41747 275 1.0
41748 276 1.0
41749 277 1.0
41750 278 1.0
41751 279 1.0
41752 280 1.0
41753 281 1.0
41754 282 1.0
41755 283 1.0
41756 284 1.0
41757 285 1.0
41758 286 1.0
41759 287 1.0
41760 288 1.0
41761 289 1.0
41762 290 1.0
41763 291 1.0
41764 292 1.0
41765 293 1.0
41766 294 1.0
41767 295 1.0
41768 296 1.0
41769 297 1.0
41770 298 1.0
41771 299 1.0
41772 300 1.0
41773 301 1.0
41774 302 1.0
41775 303 1.0
41776 304 1.0
41777 305 1.0
41778 306 1.0
41779 307 1.0
41780 308 1.0
41781 309 1.0
41782 310 1.0
41783 311 1.0
41784 312 1.0
41785 313 1.0
41786 314 1.0
41787 315 1.0
41788 316 1.0
41789 317 1.0
41790 318 1.0
41791 319 1.0
41792 320 1.0
41793 321 1.0
41794 322 1.0
41795 323 1.0
41796 324 1.0
41797 325 1.0
41798 326 1.0
41799 327 1.0
41800 328 1.0
41801 329 1.0
41802 330 1.0
41803 331 1.0
41804 332 1.0
41805 333 1.0
41806 334 1.0
41807 335 1.0
41808 336 1.0
41809 337 1.0
41810 338 1.0
41811 339 1.0
41812 340 1.0
41813 341 1.0
41814 342 1.0
41815 343 1.0
41816 344 1.0
41817 345 1.0
41818 346 1.0
41819 347 1.0
41820 348 1.0
41821 349 1.0
41822 350 1.0
41823 351 1.0
41824 352 1.0
41825 353 1.0
41826 354 1.0
41827 355 1.0
41828 356 1.0
41829 357 1.0
41830 358 1.0
41831 359 1.0
41832 360 1.0
41833 361 1.0
41834 362 1.0
41835 363 1.0
41836 364 1.0
41837 365 1.0
41838 366 1.0
41839 367 1.0
41840 368 1.0
41841 369 1.0
41842 370 1.0
41843 371 1.0
41844 372 1.0
41845 373 1.0
41846 374 1.0
41847 375 1.0
41848 376 1.0
41849 377 1.0
41850 378 1.0
41851 379 1.0
41852 380 1.0
41853 381 1.0
41854 382 1.0
41855 383 1.0
41856 384 1.0
41857 385 1.0
41858 386 1.0
41859 387 1.0
41860 388 1.0
41861 389 1.0
41862 390 1.0
41863 391 1.0
41864 392 1.0
41865 393 1.0
41866 394 1.0
41867 395 1.0
41868 396 1.0
41869 397 1.0
41870 398 1.0
41871 399 1.0
41872 400 1.0
41873 401 1.0
41874 402 1.0
41875 403 1.0
41876 404 1.0
41877 405 1.0
41878 406 1.0
41879 407 1.0
41880 408 1.0
41881 409 1.0
41882 410 1.0
41883 411 1.0
41884 412 1.0
41885 413 1.0
41886 414 1.0
41887 415 1.0
41888 416 1.0
41889 417 1.0
41890 418 1.0
41891 419 1.0
41892 420 1.0
41893 421 1.0
41894 422 1.0
41895 423 1.0
41896 424 1.0
41897 425 1.0
41898 426 1.0
41899 427 1.0
41900 428 1.0
41901 429 1.0
41902 430 1.0
41903 431 1.0
41904 432 1.0
41905 433 1.0
41906 434 1.0
41907 435 1.0
41908 436 1.0
41909 437 1.0
41910 438 1.0
41911 439 1.0
41912 440 1.0
41913 441 1.0
41914 442 1.0
41915 443 1.0
41916 444 1.0
41917 445 1.0
41918 446 1.0
41919 447 1.0
41920 448 1.0
41921 449 1.0
41922 450 1.0
41923 451 1.0
41924 452 1.0
41925 453 1.0
41926 454 1.0
41927 455 1.0
41928 456 1.0
41929 457 1.0
41930 458 1.0
41931 459 1.0
41932 460 1.0
41933 461 1.0
41934 462 1.0
41935 463 1.0
41936 464 1.0
41937 465 1.0
41938 466 1.0
41939 467 1.0
41940 468 1.0
41941 469 1.0
41942 470 1.0
41943 471 1.0
41944 472 1.0
41945 473 1.0
41946 474 1.0
41947 475 1.0
41948 476 1.0
41949 477 1.0
41950 478 1.0
41951 479 1.0
41952 480 1.0
41953 481 1.0
41954 482 1.0
41955 483 1.0
41956 484 1.0
41957 485 1.0
41958 486 1.0
41959 487 1.0
41960 488 1.0
41961 489 1.0
41962 490 1.0
41963 491 1.0
41964 492 1.0
41965 493 1.0
41966 494 1.0
41967 495 1.0
41968 496 1.0
41969 497 1.0
41970 498 1.0
41971 499 1.0
41972 500 1.0
41973 501 1.0
41974 502 1.0
41975 503 1.0
41976 504 1.0
41977 505 1.0
41978 506 1.0
41979 507 1.0
41980 508 1.0
41981 509 1.0
41982 510 1.0
41983 511 1.0
41984 512 1.0
41985 513 1.0
41986 514 1.0
41987 515 1.0
41988 516 1.0
41989 517 1.0
41990 518 1.0
41991 519 1.0
41992 520 1.0
41993 521 1.0
41994 522 1.0
41995 523 1.0
41996 524 1.0
41997 525 1.0
41998 526 1.0
41999 527 1.0
42000 528 1.0
42001 529 1.0
42002 530 1.0
42003 531 1.0
42004 532 1.0
42005 533 1.0
42006 534 1.0
42007 535 1.0
42008 536 1.0
42009 537 1.0
42010 538 1.0
42011 539 1.0
42012 540 1.0
42013 541 1.0
42014 542 1.0
42015 543 1.0
42016 544 1.0
42017 545 1.0
42018 546 1.0
42019 547 1.0
42020 548 1.0
42021 549 1.0
42022 550 1.0
42023 551 1.0
42024 552 1.0
42025 553 1.0
42026 554 1.0
42027 555 1.0
42028 556 1.0
42029 557 1.0
42030 558 1.0
42031 559 1.0
42032 560 1.0
42033 561 1.0
42034 562 1.0
42035 563 1.0
42036 564 1.0
42037 565 1.0
42038 566 1.0
42039 567 1.0
42040 568 1.0
42041 569 1.0
42042 570 1.0
42043 571 1.0
42044 572 1.0
42045 573 1.0
42046 574 1.0
42047 575 1.0
42048 576 1.0
42049 577 1.0
42050 578 1.0
42051 579 1.0
42052 580 1.0
42053 581 1.0
42054 582 1.0
42055 583 1.0
42056 584 1.0
42057 585 1.0
42058 586 1.0
42059 587 1.0
42060 588 1.0
42061 589 1.0
42062 590 1.0
42063 591 1.0
42064 592 1.0
42065 593 1.0
42066 594 1.0
42067 595 1.0
42068 596 1.0
42069 597 1.0
42070 598 1.0
42071 599 1.0
42072 600 1.0
42073 601 1.0
42074 602 1.0
42075 603 1.0
42076 604 1.0
42077 605 1.0
42078 606 1.0
42079 607 1.0
42080 608 1.0
42081 609 1.0
42082 610 1.0
42083 611 1.0
42084 612 1.0
42085 613 1.0
42086 614 1.0
42087 615 1.0
42088 616 1.0
42089 617 1.0
42090 618 1.0
42091 619 1.0
42092 620 1.0
42093 621 1.0
42094 622 1.0
42095 623 1.0
42096 624 1.0
42097 625 1.0
42098 626 1.0
42099 627 1.0
42100 628 1.0
42101 629 1.0
42102 630 1.0
42103 631 1.0
42104 632 1.0
42105 633 1.0
42106 634 1.0
42107 635 1.0
42108 636 1.0
42109 637 1.0
42110 638 1.0
42111 639 1.0
42112 640 1.0
42113 641 1.0
42114 642 1.0
42115 643 1.0
42116 644 1.0
42117 645 1.0
42118 646 1.0
42119 647 1.0
42120 648 1.0
42121 649 1.0
42122 650 1.0
42123 651 1.0
42124 652 1.0
42125 653 1.0
42126 654 1.0
42127 655 1.0
42128 656 1.0
42129 657 1.0
42130 658 1.0
42131 659 1.0
42132 660 1.0
42133 661 1.0
42134 662 1.0
42135 663 1.0
42136 664 1.0
42137 665 1.0
42138 666 1.0
42139 667 1.0
42140 668 1.0
42141 669 1.0
42142 670 1.0
42143 671 1.0
42144 672 1.0
42145 673 1.0
42146 674 1.0
42147 675 1.0
42148 676 1.0
42149 677 1.0
42150 678 1.0
42151 679 1.0
42152 680 1.0
42153 681 1.0
42154 682 1.0
42155 683 1.0
42156 684 1.0
42157 685 1.0
42158 686 1.0
42159 687 1.0
42160 688 1.0
42161 689 1.0
42162 690 1.0
42163 691 1.0
42164 692 1.0
42165 693 1.0
42166 694 1.0
42167 695 1.0
42168 696 1.0
42169 697 1.0
42170 698 1.0
42171 699 1.0
42172 700 1.0
42173 701 1.0
42174 702 1.0
42175 703 1.0
42176 704 1.0
42177 705 1.0
42178 706 1.0
42179 707 1.0
42180 708 1.0
42181 709 1.0
42182 710 1.0
42183 711 1.0
42184 712 1.0
42185 713 1.0
42186 714 1.0
42187 715 1.0
42188 716 1.0
42189 717 1.0
42190 718 1.0
42191 719 1.0
42192 720 1.0
42193 721 1.0
42194 722 1.0
42195 723 1.0
42196 724 1.0
42197 725 1.0
42198 726 1.0
42199 727 1.0
42200 728 1.0
42201 729 1.0
42202 730 1.0
42203 731 1.0
42204 732 1.0
42205 733 1.0
42206 734 1.0
42207 735 1.0
42208 736 1.0
42209 737 1.0
42210 738 1.0
42211 739 1.0
42212 740 1.0
42213 741 1.0
42214 742 1.0
42215 743 1.0
42216 744 1.0
42217 745 1.0
42218 746 1.0
42219 747 1.0
42220 748 1.0
42221 749 1.0
42222 750 1.0
42223 751 1.0
42224 752 1.0
42225 753 1.0
42226 754 1.0
42227 755 1.0
42228 756 1.0
42229 757 1.0
42230 758 1.0
42231 759 1.0
42232 760 1.0
42233 761 1.0
42234 762 1.0
42235 763 1.0
42236 764 1.0
42237 765 1.0
42238 766 1.0
42239 767 1.0
42240 768 1.0
42241 769 1.0
42242 770 1.0
42243 771 1.0
42244 772 1.0
42245 773 1.0
42246 774 1.0
42247 775 1.0
42248 776 1.0
42249 777 1.0
42250 778 1.0
42251 779 1.0
42252 780 1.0
42253 781 1.0
42254 782 1.0
42255 783 1.0
42256 784 1.0
42257 785 1.0
42258 786 1.0
42259 787 1.0
42260 788 1.0
42261 789 1.0
42262 790 1.0
42263 791 1.0
42264 792 1.0
42265 793 1.0
42266 794 1.0
42267 795 1.0
42268 796 1.0
42269 797 1.0
42270 798 1.0
42271 799 1.0
42272 800 1.0
42273 801 1.0
42274 802 1.0
42275 803 1.0
42276 804 1.0
42277 805 1.0
42278 806 1.0
42279 807 1.0
42280 808 1.0
42281 809 1.0
42282 810 1.0
42283 811 1.0
42284 812 1.0
42285 813 1.0
42286 814 1.0
42287 815 1.0
42288 816 1.0
42289 817 1.0
42290 818 1.0
42291 819 1.0
42292 820 1.0
42293 821 1.0
42294 822 1.0
42295 823 1.0
42296 824 1.0
42297 825 1.0
42298 826 1.0
42299 827 1.0
42300 828 1.0
42301 829 1.0
42302 830 1.0
42303 831 1.0
42304 832 1.0
42305 833 1.0
42306 834 1.0
42307 835 1.0
42308 836 1.0
42309 837 1.0
42310 838 1.0
42311 839 1.0
42312 840 1.0
42313 841 1.0
42314 842 1.0
42315 843 1.0
42316 844 1.0
42317 845 1.0
42318 846 1.0
42319 847 1.0
42320 848 1.0
42321 849 1.0
42322 850 1.0
42323 851 1.0
42324 852 1.0
42325 853 1.0
42326 854 1.0
42327 855 1.0
42328 856 1.0
42329 857 1.0
42330 858 1.0
42331 859 1.0
42332 860 1.0
42333 861 1.0
42334 862 1.0
42335 863 1.0
42336 864 1.0
42337 865 1.0
42338 866 1.0
42339 867 1.0
42340 868 1.0
42341 869 1.0
42342 870 1.0
42343 871 1.0
42344 872 1.0
42345 873 1.0
42346 874 1.0
42347 875 1.0
42348 876 1.0
42349 877 1.0
42350 878 1.0
42351 879 1.0
42352 880 1.0
42353 881 1.0
42354 882 1.0
42355 883 1.0
42356 884 1.0
42357 885 1.0
42358 886 1.0
42359 887 1.0
42360 888 1.0
42361 889 1.0
42362 890 1.0
42363 891 1.0
42364 892 1.0
42365 893 1.0
42366 894 1.0
42367 895 1.0
42368 896 1.0
42369 897 1.0
42370 898 1.0
42371 899 1.0
42372 900 1.0
42373 901 1.0
42374 902 1.0
42375 903 1.0
42376 904 1.0
42377 905 1.0
42378 906 1.0
42379 907 1.0
42380 908 1.0
42381 909 1.0
42382 910 1.0
42383 911 1.0
42384 912 1.0
42385 913 1.0
42386 914 1.0
42387 915 1.0
42388 916 1.0
42389 917 1.0
42390 918 1.0
42391 919 1.0
42392 920 1.0
42393 921 1.0
42394 922 1.0
42395 923 1.0
42396 924 1.0
42397 925 1.0
42398 926 1.0
42399 927 1.0
42400 928 1.0
42401 929 1.0
42402 930 1.0
42403 931 1.0
42404 932 1.0
42405 933 1.0
42406 934 1.0
42407 935 1.0
42408 936 1.0
42409 937 1.0
42410 938 1.0
42411 939 1.0
42412 940 1.0
42413 941 1.0
42414 942 1.0
42415 943 1.0
42416 944 1.0
42417 945 1.0
42418 946 1.0
42419 947 1.0
42420 948 1.0
42421 949 1.0
42422 950 1.0
42423 951 1.0
42424 952 1.0
42425 953 1.0
42426 954 1.0
42427 955 1.0
42428 956 1.0
42429 957 1.0
42430 958 1.0
42431 959 1.0
42432 960 1.0
42433 961 1.0
42434 962 1.0
42435 963 1.0
42436 964 1.0
42437 965 1.0
42438 966 1.0
42439 967 1.0
42440 968 1.0
42441 969 1.0
42442 970 1.0
42443 971 1.0
42444 972 1.0
42445 973 1.0
42446 974 1.0
42447 975 1.0
42448 976 1.0
42449 977 1.0
42450 978 1.0
42451 979 1.0
42452 980 1.0
42453 981 1.0
42454 982 1.0
42455 983 1.0
42456 984 1.0
42457 985 1.0
42458 986 1.0
42459 987 1.0
42460 988 1.0
42461 989 1.0
42462 990 1.0
42463 991 1.0
42464 992 1.0
42465 993 1.0
42466 994 1.0
42467 995 1.0
42468 996 1.0
42469 997 1.0
42470 998 1.0
42471 999 1.0
42472 1000 1.0
42473 1001 1.0
42474 1002 1.0
42475 1003 1.0
42476 1004 1.0
42477 1005 1.0
42478 1006 1.0
42479 1007 1.0
42480 1008 1.0
42481 1009 1.0
42482 1010 1.0
42483 1011 1.0
42484 1012 1.0
42485 1013 1.0
42486 1014 1.0
42487 1015 1.0
42488 1016 1.0
42489 1017 1.0
42490 1018 1.0
42491 1019 1.0
42492 1020 1.0
42493 1021 1.0
42494 1022 1.0
42495 1023 1.0
42496 1024 1.0
42497 1025 1.0
42498 1026 1.0
42499 1027 1.0
42500 1028 1.0
42501 1029 1.0
42502 1030 1.0
42503 1031 1.0
42504 1032 1.0
42505 1033 1.0
42506 1034 1.0
42507 1035 1.0
42508 1036 1.0
42509 1037 1.0
42510 1038 1.0
42511 1039 1.0
42512 1040 1.0
42513 1041 1.0
42514 1042 1.0
42515 1043 1.0
42516 1044 1.0
42517 1045 1.0
42518 1046 1.0
42519 1047 1.0
42520 1048 1.0
42521 1049 1.0
42522 1050 1.0
42523 1051 1.0
42524 1052 1.0
42525 1053 1.0
42526 1054 1.0
42527 1055 1.0
42528 1056 1.0
42529 1057 1.0
42530 1058 1.0
42531 1059 1.0
42532 1060 1.0
42533 1061 1.0
42534 1062 1.0
42535 1063 1.0
42536 1064 1.0
42537 1065 1.0
42538 1066 1.0
42539 1067 1.0
42540 1068 1.0
42541 1069 1.0
42542 1070 1.0
42543 1071 1.0
42544 1072 1.0
42545 1073 1.0
42546 1074 1.0
42547 1075 1.0
42548 1076 1.0
42549 1077 1.0
42550 1078 1.0
42551 1079 1.0
42552 1080 1.0
42553 1081 1.0
42554 1082 1.0
42555 1083 1.0
42556 1084 1.0
42557 1085 1.0
42558 1086 1.0
42559 1087 1.0
42560 1088 1.0
42561 1089 1.0
42562 1090 1.0
42563 1091 1.0
42564 1092 1.0
42565 1093 1.0
42566 1094 1.0
42567 1095 1.0
42568 1096 1.0
42569 1097 1.0
42570 1098 1.0
42571 1099 1.0
42572 1100 1.0
42573 1101 1.0
42574 1102 1.0
42575 1103 1.0
42576 1104 1.0
42577 1105 1.0
42578 1106 1.0
42579 1107 1.0
42580 1108 1.0
42581 1109 1.0
42582 1110 1.0
42583 1111 1.0
42584 1112 1.0
42585 1113 1.0
42586 1114 1.0
42587 1115 1.0
42588 1116 1.0
42589 1117 1.0
42590 1118 1.0
42591 1119 1.0
42592 1120 1.0
42593 1121 1.0
42594 1122 1.0
42595 1123 1.0
42596 1124 1.0
42597 1125 1.0
42598 1126 1.0
42599 1127 1.0
42600 1128 1.0
42601 1129 1.0
42602 1130 1.0
42603 1131 1.0
42604 1132 1.0
42605 1133 1.0
42606 1134 1.0
42607 1135 1.0
42608 1136 1.0
42609 1137 1.0
42610 1138 1.0
42611 1139 1.0
42612 1140 1.0
42613 1141 1.0
42614 1142 1.0
42615 1143 1.0
42616 1144 1.0
42617 1145 1.0
42618 1146 1.0
42619 1147 1.0
42620 1148 1.0
42621 1149 1.0
42622 1150 1.0
42623 1151 1.0
42624 1152 1.0
42625 1153 1.0
42626 1154 1.0
42627 1155 1.0
42628 1156 1.0
42629 1157 1.0
42630 1158 1.0
42631 1159 1.0
42632 1160 1.0
42633 1161 1.0
42634 1162 1.0
42635 1163 1.0
42636 1164 1.0
42637 1165 1.0
42638 1166 1.0
42639 1167 1.0
42640 1168 1.0
42641 1169 1.0
42642 1170 1.0
42643 1171 1.0
42644 1172 1.0
42645 1173 1.0
42646 1174 1.0
42647 1175 1.0
42648 1176 1.0
42649 1177 1.0
42650 1178 1.0
42651 1179 1.0
42652 1180 1.0
42653 1181 1.0
42654 1182 1.0
42655 1183 1.0
42656 1184 1.0
42657 1185 1.0
42658 1186 1.0
42659 1187 1.0
42660 1188 1.0
42661 1189 1.0
42662 1190 1.0
42663 1191 1.0
42664 1192 1.0
42665 1193 1.0
42666 1194 1.0
42667 1195 1.0
42668 1196 1.0
42669 1197 1.0
42670 1198 1.0
42671 1199 1.0
42672 1200 1.0
42673 1201 1.0
42674 1202 1.0
42675 1203 1.0
42676 1204 1.0
42677 1205 1.0
42678 1206 1.0
42679 1207 1.0
42680 1208 1.0
42681 1209 1.0
42682 1210 1.0
42683 1211 1.0
42684 1212 1.0
42685 1213 1.0
42686 1214 1.0
42687 1215 1.0
42688 1216 1.0
42689 1217 1.0
42690 1218 1.0
42691 1219 1.0
42692 1220 1.0
42693 1221 1.0
42694 1222 1.0
42695 1223 1.0
42696 1224 1.0
42697 1225 1.0
42698 1226 1.0
42699 1227 1.0
42700 1228 1.0
42701 1229 1.0
42702 1230 1.0
42703 1231 1.0
42704 1232 1.0
42705 1233 1.0
42706 1234 1.0
42707 1235 1.0
42708 1236 1.0
42709 1237 1.0
42710 1238 1.0
42711 1239 1.0
42712 1240 1.0
42713 1241 1.0
42714 1242 1.0
42715 1243 1.0
42716 1244 1.0
42717 1245 1.0
42718 1246 1.0
42719 1247 1.0
42720 1248 1.0
42721 1249 1.0
42722 1250 1.0
42723 1251 1.0
42724 1252 1.0
42725 1253 1.0
42726 1254 1.0
42727 1255 1.0
42728 1256 1.0
42729 1257 1.0
42730 1258 1.0
42731 1259 1.0
42732 1260 1.0
42733 1261 1.0
42734 1262 1.0
42735 1263 1.0
42736 1264 1.0
42737 1265 1.0
42738 1266 1.0
42739 1267 1.0
42740 1268 1.0
42741 1269 1.0
42742 1270 1.0
42743 1271 1.0
42744 1272 1.0
42745 1273 1.0
42746 1274 1.0
42747 1275 1.0
42748 1276 1.0
42749 1277 1.0
42750 1278 1.0
42751 1279 1.0
42752 1280 1.0
42753 1281 1.0
42754 1282 1.0
42755 1283 1.0
42756 1284 1.0
42757 1285 1.0
42758 1286 1.0
42759 1287 1.0
42760 1288 1.0
42761 1289 1.0
42762 1290 1.0
42763 1291 1.0
42764 1292 1.0
42765 1293 1.0
42766 1294 1.0
42767 1295 1.0
42768 1296 1.0
42769 1 0.5
42770 4 0.5
42771 1 0.25
42771 2 0.3535533905932738
42771 4 0.25
42772 1 0.25
42772 2 -0.3535533905932738
42772 4 0.25
42773 9 1.0
42774 16 0.5
42775 25 0.5
42776 16 0.25
42776 23 0.3535533905932738
42776 25 0.25
42777 16 0.25
42777 23 -0.3535533905932738
42777 25 0.25
42778 36 1.0
42779 49 0.5
42780 64 0.5
42781 49 0.25
42781 62 0.3535533905932738
42781 64 0.25
42782 49 0.25
42782 62 -0.3535533905932738
42782 64 0.25
42783 81 1.0
42784 100 0.5
42785 121 0.5
42786 100 0.25
42786 119 0.3535533905932738
42786 121 0.25
42787 100 0.25
42787 119 -0.3535533905932738
42787 121 0.25
42788 144 1.0
42789 169 0.5
42790 196 0.5
42791 169 0.25
42791 194 0.3535533905932738
42791 196 0.25
42792 169 0.25
42792 194 -0.3535533905932738
42792 196 0.25
42793 225 1.0
42794 256 0.5
42795 289 0.5
42796 256 0.25
42796 287 0.3535533905932738
42796 289 0.25
42797 256 0.25
42797 287 -0.3535533905932738
42797 289 0.25
42798 324 1.0
42799 361 0.5
42800 400 0.5
42801 361 0.25
42801 398 0.3535533905932738
42801 400 0.25
42802 361 0.25
42802 398 -0.3535533905932738
42802 400 0.25
42803 441 1.0
42804 484 0.5
42805 529 0.5
42806 484 0.25
42806 527 0.3535533905932738
42806 529 0.25
42807 484 0.25
42807 527 -0.3535533905932738
42807 529 0.25
42808 576 1.0
42809 625 0.5
42810 676 0.5
42811 625 0.25
42811 674 0.3535533905932738
42811 676 0.25
42812 625 0.25
42812 674 -0.3535533905932738
42812 676 0.25
42813 729 1.0
42814 784 0.5
42815 841 0.5
42816 784 0.25
42816 839 0.3535533905932738
42816 841 0.25
42817 784 0.25
42817 839 -0.3535533905932738
42817 841 0.25
42818 900 1.0
42819 961 0.5
42820 1024 0.5
42821 961 0.25
42821 1022 0.3535533905932738
42821 1024 0.25
42822 961 0.25
42822 1022 -0.3535533905932738
42822 1024 0.25
42823 1089 1.0
42824 1156 0.5
42825 1225 0.5
42826 1156 0.25
42826 1223 0.3535533905932738
42826 1225 0.25
42827 1156 0.25
42827 1223 -0.3535533905932738
42827 1225 0.25
42828 1296 1.0
42829 1 1.0
42829 4 1.0
42829 9 1.0
42830 10 1.0
42830 19 1.0
42830 30 1.0
42831 37 1.0
42831 52 1.0
42831 69 1.0
42832 82 1.0
42832 103 1.0
42832 126 1.0
42833 145 1.0
42833 172 1.0
42833 201 1.0
42834 226 1.0
42834 259 1.0
42834 294 1.0
42835 325 1.0
42835 364 1.0
42835 405 1.0
42836 442 1.0
42836 487 1.0
42836 534 1.0
42837 577 1.0
42837 628 1.0
42837 681 1.0
42838 730 1.0
42838 787 1.0
42838 846 1.0
42839 901 1.0
42839 964 1.0
42839 1029 1.0
42840 1090 1.0
42840 1159 1.0
42840 1230 1.0
42841 11 -1.0
42841 20 -1.0
42841 31 -1.0
42842 16 1.0
42842 25 1.0
42842 36 1.0
42843 43 1.0
42843 58 1.0
42843 75 1.0
42844 88 1.0
42844 109 1.0
42844 132 1.0
42845 151 1.0
42845 178 1.0
42845 207 1.0
42846 232 1.0
42846 265 1.0
42846 300 1.0
42847 331 1.0
42847 370 1.0
42847 411 1.0
42848 448 1.0
42848 493 1.0
42848 540 1.0
42849 583 1.0
42849 634 1.0
42849 687 1.0
42850 736 1.0
42850 793 1.0
42850 852 1.0
42851 907 1.0
42851 970 1.0
42851 1035 1.0
42852 1096 1.0
42852 1165 1.0
42852 1236 1.0
42853 38 -1.0
42853 53 -1.0
42853 70 -1.0
42854 44 -1.0
42854 59 -1.0
42854 76 -1.0
42855 49 1.0
42855 64 1.0
42855 81 1.0
42856 94 1.0
42856 115 1.0
42856 138 1.0
42857 157 1.0
42857 184 1.0
42857 213 1.0
42858 238 1.0
42858 271 1.0
42858 306 1.0
42859 337 1.0
42859 376 1.0
42859 417 1.0
42860 454 1.0
42860 499 1.0
42860 546 1.0
42861 589 1.0
42861 640 1.0
42861 693 1.0
42862 742 1.0
42862 799 1.0
42862 858 1.0
42863 913 1.0
42863 976 1.0
42863 1041 1.0
42864 1102 1.0
42864 1171 1.0
42864 1242 1.0
42865 83 -1.0
42865 104 -1.0
42865 127 -1.0
42866 89 -1.0
42866 110 -1.0
42866 133 -1.0
42867 95 -1.0
42867 116 -1.0
42867 139 -1.0
42868 100 1.0
42868 121 1.0
42868 144 1.0
42869 163 1.0
42869 190 1.0
42869 219 1.0
42870 244 1.0
42870 277 1.0
42870 312 1.0
42871 343 1.0
42871 382 1.0
42871 423 1.0
42872 460 1.0
42872 505 1.0
42872 552 1.0
42873 595 1.0
42873 646 1.0
42873 699 1.0
42874 748 1.0
42874 805 1.0
42874 864 1.0
42875 919 1.0
42875 982 1.0
42875 1047 1.0
42876 1108 1.0
42876 1177 1.0
42876 1248 1.0
42877 146 -1.0
42877 173 -1.0
42877 202 -1.0
42878 152 -1.0
42878 179 -1.0
42878 208 -1.0
42879 158 -1.0
42879 185 -1.0
42879 214 -1.0
42880 164 -1.0
42880 191 -1.0
42880 220 -1.0
42881 169 1.0
42881 196 1.0
42881 225 1.0
42882 250 1.0
42882 283 1.0
42882 318 1.0
42883 349 1.0
42883 388 1.0
42883 429 1.0
42884 466 1.0
42884 511 1.0
42884 558 1.0
42885 601 1.0
42885 652 1.0
42885 705 1.0
42886 754 1.0
42886 811 1.0
42886 870 1.0
42887 925 1.0
42887 988 1.0
42887 1053 1.0
42888 1114 1.0
42888 1183 1.0
42888 1254 1.0
42889 227 -1.0
42889 260 -1.0
42889 295 -1.0
42890 233 -1.0
42890 266 -1.0
42890 301 -1.0
42891 239 -1.0
42891 272 -1.0
42891 307 -1.0
42892 245 -1.0
42892 278 -1.0
42892 313 -1.0
42893 251 -1.0
42893 284 -1.0
42893 319 -1.0
42894 256 1.0
42894 289 1.0
42894 324 1.0
42895 355 1.0
42895 394 1.0
42895 435 1.0
42896 472 1.0
42896 517 1.0
42896 564 1.0
42897 607 1.0
42897 658 1.0
42897 711 1.0
42898 760 1.0
42898 817 1.0
42898 876 1.0
42899 931 1.0
42899 994 1.0
42899 1059 1.0
42900 1120 1.0
42900 1189 1.0
42900 1260 1.0
42901 326 -1.0
42901 365 -1.0
42901 406 -1.0
42902 332 -1.0
42902 371 -1.0
42902 412 -1.0
42903 338 -1.0
42903 377 -1.0
42903 418 -1.0
42904 344 -1.0
42904 383 -1.0
42904 424 -1.0
42905 350 -1.0
42905 389 -1.0
42905 430 -1.0
42906 356 -1.0
42906 395 -1.0
42906 436 -1.0
42907 361 1.0
42907 400 1.0
42907 441 1.0
42908 478 1.0
42908 523 1.0
42908 570 1.0
42909 613 1.0
42909 664 1.0
42909 717 1.0
42910 766 1.0
42910 823 1.0
42910 882 1.0
42911 937 1.0
42911 1000 1.0
42911 1065 1.0
42912 1126 1.0
42912 1195 1.0
42912 1266 1.0
42913 443 -1.0
42913 488 -1.0
42913 535 -1.0
42914 449 -1.0
42914 494 -1.0
42914 541 -1.0
42915 455 -1.0
42915 500 -1.0
42915 547 -1.0
42916 461 -1.0
42916 506 -1.0
42916 553 -1.0
42917 467 -1.0
42917 512 -1.0
42917 559 -1.0
42918 473 -1.0
42918 518 -1.0
42918 565 -1.0
42919 479 -1.0
42919 524 -1.0
42919 571 -1.0
42920 484 1.0
42920 529 1.0
42920 576 1.0
42921 619 1.0
42921 670 1.0
42921 723 1.0
42922 772 1.0
42922 829 1.0
42922 888 1.0
42923 943 1.0
42923 1006 1.0
42923 1071 1.0
42924 1132 1.0
42924 1201 1.0
42924 1272 1.0
42925 578 -1.0
42925 629 -1.0
42925 682 -1.0
42926 584 -1.0
42926 635 -1.0
42926 688 -1.0
42927 590 -1.0
42927 641 -1.0
42927 694 -1.0
42928 596 -1.0
42928 647 -1.0
42928 700 -1.0
42929 602 -1.0
42929 653 -1.0
42929 706 -1.0
42930 608 -1.0
42930 659 -1.0
42930 712 -1.0
42931 614 -1.0
42931 665 -1.0
42931 718 -1.0
42932 620 -1.0
42932 671 -1.0
42932 724 -1.0
42933 625 1.0
42933 676 1.0
42933 729 1.0
42934 778 1.0
42934 835 1.0
42934 894 1.0
42935 949 1.0
42935 1012 1.0
42935 1077 1.0
42936 1138 1.0
42936 1207 1.0
42936 1278 1.0
42937 731 -1.0
42937 788 -1.0
42937 847 -1.0
42938 737 -1.0
42938 794 -1.0
42938 853 -1.0
42939 743 -1.0
42939 800 -1.0
42939 859 -1.0
42940 749 -1.0
42940 806 -1.0
42940 865 -1.0
42941 755 -1.0
42941 812 -1.0
42941 871 -1.0
42942 761 -1.0
42942 818 -1.0
42942 877 -1.0
42943 767 -1.0
42943 824 -1.0
42943 883 -1.0
42944 773 -1.0
42944 830 -1.0
42944 889 -1.0
42945 779 -1.0
42945 836 -1.0
42945 895 -1.0
42946 784 1.0
42946 841 1.0
42946 900 1.0
42947 955 1.0
42947 1018 1.0
42947 1083 1.0
42948 1144 1.0
42948 1213 1.0
42948 1284 1.0
42949 902 -1.0
42949 965 -1.0
42949 1030 -1.0
42950 908 -1.0
42950 971 -1.0
42950 1036 -1.0
42951 914 -1.0
42951 977 -1.0
42951 1042 -1.0
42952 920 -1.0
42952 983 -1.0
42952 1048 -1.0
42953 926 -1.0
42953 989 -1.0
42953 1054 -1.0
42954 932 -1.0
42954 995 -1.0
42954 1060 -1.0
42955 938 -1.0
42955 1001 -1.0
42955 1066 -1.0
42956 944 -1.0
42956 1007 -1.0
42956 1072 -1.0
42957 950 -1.0
42957 1013 -1.0
42957 1078 -1.0
42958 956 -1.0
42958 1019 -1.0
42958 1084 -1.0
42959 961 1.0
42959 1024 1.0
42959 1089 1.0
42960 1150 1.0
42960 1219 1.0
42960 1290 1.0
42961 1091 -1.0
42961 1160 -1.0
42961 1231 -1.0
42962 1097 -1.0
42962 1166 -1.0
42962 1237 -1.0
42963 1103 -1.0
42963 1172 -1.0
42963 1243 -1.0
42964 1109 -1.0
42964 1178 -1.0
42964 1249 -1.0
42965 1115 -1.0
42965 1184 -1.0
42965 1255 -1.0
42966 1121 -1.0
42966 1190 -1.0
42966 1261 -1.0
42967 1127 -1.0
42967 1196 -1.0
42967 1267 -1.0
42968 1133 -1.0
42968 1202 -1.0
42968 1273 -1.0
42969 1139 -1.0
42969 1208 -1.0
42969 1279 -1.0
42970 1145 -1.0
42970 1214 -1.0
42970 1285 -1.0
42971 1151 -1.0
42971 1220 -1.0
42971 1291 -1.0
42972 1156 1.0
42972 1225 1.0
42972 1296 1.0
42973 1 1.0
42973 4 1.0
42973 9 1.0
42973 16 1.0
42973 25 1.0
42973 36 1.0
42973 49 1.0
42973 64 1.0
42973 81 1.0
42973 100 1.0
42973 121 1.0
42973 144 1.0
42973 169 1.0
42973 196 1.0
42973 225 1.0
42973 256 1.0
42973 289 1.0
42973 324 1.0
42973 361 1.0
42973 400 1.0
42973 441 1.0
42973 484 1.0
42973 529 1.0
42973 576 1.0
42973 625 1.0
42973 676 1.0
42973 729 1.0
42973 784 1.0
42973 841 1.0
42973 900 1.0
42973 961 1.0
42973 1024 1.0
42973 1089 1.0
42973 1156 1.0
42973 1225 1.0
42973 1296 1.0

BCOORD
187
42769 2.9608531262809618e-05
42770 3.095936173420447e-07
42771 1.7806630662052514e-05
42772 1.211149421809915e-05
42773 0.08327349708357301
42774 3.095936173420447e-07
42775 2.9608531262809618e-05
42776 1.211149421809915e-05
42777 1.7806630662052514e-05
42778 0.08327349708357301
42779 1.211149421809915e-05
42780 1.7806630662052514e-05
42781 2.9608531262809618e-05
42782 3.095936173420447e-07
42783 0.08327349708357301
42784 1.7806630662052514e-05
42785 1.211149421809915e-05
42786 3.095936173420447e-07
42787 2.9608531262809618e-05
42788 0.08327349708357301
42789 2.9608531262809618e-05
42790 3.095936173420447e-07
42791 1.7806630662052514e-05
42792 1.211149421809915e-05
42793 0.08327349708357301
42794 3.095936173420447e-07
42795 2.9608531262809618e-05
42796 1.211149421809915e-05
42797 1.7806630662052514e-05
42798 0.08327349708357301
42799 1.211149421809915e-05
42800 1.7806630662052514e-05
42801 2.9608531262809618e-05
42802 3.095936173420447e-07
42803 0.08327349708357301
42804 1.7806630662052514e-05
42805 1.211149421809915e-05
42806 3.095936173420447e-07
42807 2.9608531262809618e-05
42808 0.08327349708357301
42809 2.9608531262809618e-05
42810 3.095936173420447e-07
42811 1.7806630662052514e-05
42812 1.211149421809915e-05
42813 0.08327349708357301
42814 3.095936173420447e-07
42815 2.9608531262809618e-05
42816 1.211149421809915e-05
42817 1.7806630662052514e-05
42818 0.08327349708357301
42819 1.211149421809915e-05
42820 1.7806630662052514e-05
42821 2.9608531262809618e-05
42822 3.095936173420447e-07
42823 0.08327349708357301
42824 1.7806630662052514e-05
42825 1.211149421809915e-05
42826 3.095936173420447e-07
42827 2.9608531262809618e-05
42828 0.08327349708357301
42829 0.08333333333333333
42830 0.11551752146754397
42831 0.11667265798346468
42832 0.11667265798346468
42833 0.11435094813749536
42834 0.11551752146754397
42835 0.11394948847957567
42836 0.11593030242207014
42837 0.11435094813749536
42838 0.11551752146754397
42839 0.11593030242207014
42840 0.11394948847957567
42842 0.08333333333333333
42843 0.11667265798346468
42844 0.11667265798346468
42845 0.11551752146754397
42846 0.11435094813749536
42847 0.11593030242207014
42848 0.11394948847957567
42849 0.11551752146754397
42850 0.11435094813749536
42851 0.11394948847957567
42852 0.11593030242207014
42853 0.0011667654722763397
42854 -0.0011667654722763397
42855 0.08333333333333333
42856 0.11551752146754397
42857 0.11593030242207014
42858 0.11394948847957567
42859 0.11435094813749536
42860 0.11551752146754397
42861 0.11394948847957567
42862 0.11593030242207014
42863 0.11435094813749536
42864 0.11551752146754397
42865 -0.0011667654722763397
42866 0.0011667654722763397
42868 0.08333333333333333
42869 0.11394948847957567
42870 0.11593030242207014
42871 0.11551752146754397
42872 0.11435094813749536
42873 0.11593030242207014
42874 0.11394948847957567
42875 0.11551752146754397
42876 0.11435094813749536
42877 0.001980814606100509
42879 0.0015837358927087263
42880 0.00041708593795000405
42881 0.08333333333333333
42882 0.11551752146754397
42883 0.11667265798346468
42884 0.11667265798346468
42885 0.11435094813749536
42886 0.11551752146754397
42887 0.11394948847957567
42888 0.11593030242207014
42890 0.001980814606100509
42891 0.00041708593795000405
42892 0.0015837358927087263
42894 0.08333333333333333
42895 0.11667265798346468
42896 0.11667265798346468
42897 0.11551752146754397
42898 0.11435094813749536
42899 0.11593030242207014
42900 0.11394948847957567
42901 0.00041708593795000405
42902 0.0015837358927087263
42903 0.001980814606100509
42905 0.00116676547227634
42906 -0.00116676547227634
42907 0.08333333333333333
42908 0.11551752146754397
42909 0.11593030242207014
42910 0.11394948847957567
42911 0.11435094813749536
42912 0.11551752146754397
42913 0.0015837358927087263
42914 0.00041708593795000405
42916 0.001980814606100509
42917 -0.00116676547227634
42918 0.00116676547227634
42920 0.08333333333333333
42921 0.11394948847957567
42922 0.11593030242207014
42923 0.11551752146754397
42924 0.11435094813749536
42925 -0.0019808146061005088
42927 -0.0004170859379500037
42928 -0.0015837358927087263
42929 0.0019808146061005088
42931 0.0015837358927087266
42932 0.00041708593795000345
42933 0.08333333333333333
42934 0.11551752146754397
42935 0.11667265798346468
42936 0.11667265798346468
42938 -0.0019808146061005088
42939 -0.0015837358927087263
42940 -0.0004170859379500037
42942 0.0019808146061005088
42943 0.00041708593795000345
42944 0.0015837358927087266
42946 0.08333333333333333
42947 0.11667265798346468
42948 0.11667265798346468
42949 -0.0015837358927087263
42950 -0.0004170859379500037
42951 -0.0019808146061005088
42953 0.00041708593795000345
42954 0.0015837358927087266
42955 0.0019808146061005088
42957 0.00116676547227634
42958 -0.00116676547227634
42959 0.08333333333333333
42960 0.11551752146754397
42961 -0.0004170859379500037
42962 -0.0015837358927087263
42964 -0.0019808146061005088
42965 0.0015837358927087266
42966 0.00041708593795000345
42968 0.0019808146061005088
42969 -0.00116676547227634
42970 0.00116676547227634
42972 0.08333333333333333
42973 1.0
